
Gurobi 9.5.0 (win64) logging started Tue Dec  7 01:37:20 2021

Set parameter LogFile to value "../results/logs/log_2021_12_07_01_36.csv_11_76.log"
Set parameter Method to value 3
Gurobi Optimizer version 9.5.0 build v9.5.0rc5 (win64)
Thread count: 6 physical cores, 12 logical processors, using up to 12 threads
Optimize a model with 6334 rows, 8078 columns and 360309 nonzeros
Model fingerprint: 0x102ca8f2
Variable types: 4039 continuous, 4039 integer (4039 binary)
Coefficient statistics:
  Matrix range     [1e+00, 1e+01]
  Objective range  [1e+00, 1e+00]
  Bounds range     [1e+00, 1e+00]
  RHS range        [1e+00, 8e+01]
Found heuristic solution: objective 2904.0000000
Presolve removed 6089 rows and 7747 columns
Presolve time: 0.05s
Presolved: 245 rows, 331 columns, 2186 nonzeros
Variable types: 160 continuous, 171 integer (158 binary)
Found heuristic solution: objective 2946.0000000

Root relaxation: objective 3.047388e+03, 248 iterations, 0.00 seconds (0.00 work units)

    Nodes    |    Current Node    |     Objective Bounds      |     Work
 Expl Unexpl |  Obj  Depth IntInf | Incumbent    BestBd   Gap | It/Node Time

     0     0 3047.38844    0   63 2946.00000 3047.38844  3.44%     -    0s
H    0     0                    2948.0000000 3047.38844  3.37%     -    0s
H    0     0                    2957.0000000 3047.38844  3.06%     -    0s
H    0     0                    3013.0000000 3047.38844  1.14%     -    0s
H    0     0                    3016.0000000 3032.61738  0.55%     -    0s
     0     0 3032.61738    0   51 3016.00000 3032.61738  0.55%     -    0s
H    0     0                    3020.0000000 3032.61738  0.42%     -    0s
     0     0 3032.09536    0   50 3020.00000 3032.09536  0.40%     -    0s
     0     0 3031.79621    0   50 3020.00000 3031.79621  0.39%     -    0s
     0     0 3031.77735    0   50 3020.00000 3031.77735  0.39%     -    0s
     0     0 3029.56456    0   32 3020.00000 3029.56456  0.32%     -    0s
H    0     0                    3021.0000000 3029.56456  0.28%     -    0s
     0     0 3029.10103    0   29 3021.00000 3029.10103  0.27%     -    0s
     0     0 3029.03673    0   33 3021.00000 3029.03673  0.27%     -    0s
     0     0 3029.03144    0   33 3021.00000 3029.03144  0.27%     -    0s
     0     0 3028.25706    0   25 3021.00000 3028.25706  0.24%     -    0s
H    0     0                    3024.0000000 3028.15657  0.14%     -    0s
H    0     0                    3026.0000000 3028.15657  0.07%     -    0s
     0     0 3028.15657    0   26 3026.00000 3028.15657  0.07%     -    0s
     0     0 3028.15163    0   26 3026.00000 3028.15163  0.07%     -    0s
     0     0 3027.62337    0   33 3026.00000 3027.62337  0.05%     -    0s
     0     0 3027.51587    0   29 3026.00000 3027.51587  0.05%     -    0s
     0     0 3027.50837    0   20 3026.00000 3027.50837  0.05%     -    0s
     0     0 3027.29286    0   20 3026.00000 3027.29286  0.04%     -    0s
     0     0 3027.29286    0   20 3026.00000 3027.29286  0.04%     -    0s
     0     0 3027.29286    0   33 3026.00000 3027.29286  0.04%     -    0s
     0     0 3027.29286    0   34 3026.00000 3027.29286  0.04%     -    0s
     0     0 3027.25646    0   15 3026.00000 3027.25646  0.04%     -    0s
     0     0 3027.24935    0   15 3026.00000 3027.24935  0.04%     -    0s
     0     0 3027.24865    0   15 3026.00000 3027.24865  0.04%     -    0s
     0     0 3027.12403    0   15 3026.00000 3027.12403  0.04%     -    0s
     0     0 3027.11860    0   15 3026.00000 3027.11860  0.04%     -    0s
     0     0 3027.09765    0   10 3026.00000 3027.09765  0.04%     -    0s
     0     0 3027.09554    0   14 3026.00000 3027.09554  0.04%     -    0s
     0     0 3027.07734    0    7 3026.00000 3027.07734  0.04%     -    0s
     0     0 3027.07734    0    8 3026.00000 3027.07734  0.04%     -    0s
     0     0 3027.07734    0    7 3026.00000 3027.07734  0.04%     -    0s
     0     0 3027.07734    0    7 3026.00000 3027.07734  0.04%     -    0s
     0     0 3027.07734    0    8 3026.00000 3027.07734  0.04%     -    0s
H    0     0                    3027.0000000 3027.07734  0.00%     -    0s
     0     0 3027.00000    0    7 3027.00000 3027.00000  0.00%     -    0s

Cutting planes:
  Gomory: 3
  MIR: 16

Explored 1 nodes (1289 simplex iterations) in 0.29 seconds (0.12 work units)
Thread count was 12 (of 12 available processors)

Solution count 10: 3027 3026 3026 ... 3020

Optimal solution found (tolerance 1.00e-04)
Best objective 3.027000000000e+03, best bound 3.027000000000e+03, gap 0.0000%
